benchmark_instances/dzn_benchmark_instances/benchmark_instance_12-5.dzn
% Input: sequence of points
seq_points = [|1,1
              |5,1
              |6,1
              |7,1
              |8,1
              |1,2
              |2,2
              |5,2
              |7,2
              |4,3
              |8,3
              |2,4
              |3,4
              |10,4
              |11,4
              |5,5
              |8,5
              |11,5
              |4,6
              |5,6
              |11,6
              |2,7
              |4,7
              |6,7
              |7,7
              |8,7
              |11,7
              |1,8
              |9,8
              |10,8
              |2,9
              |3,9
              |4,9
              |5,9
              |8,9
              |9,9
              |10,9
              |11,9
              |4,10
              |5,10
              |9,10
              |10,10
              |2,11
              |3,11
              |7,11
              |8,11
              |10,11
              |11,11
              |6,0
              |12,5
              |12,6
              |12,7
              |2,12
              |3,12
              |4,12
              |6,12
              |9,12
              |10,12
              |12,12
              |0,7
              |0,8
              |1,12
              |0,0
              |0,1
             |];

num_points = 64;
