benchmark_instances/lp_benchmark_instances/benchmark_instance_12-5.lp
% Input: sequence of points
point(1,1).
point(5,1).
point(6,1).
point(7,1).
point(8,1).
point(1,2).
point(2,2).
point(5,2).
point(7,2).
point(4,3).
point(8,3).
point(2,4).
point(3,4).
point(10,4).
point(11,4).
point(5,5).
point(8,5).
point(11,5).
point(4,6).
point(5,6).
point(11,6).
point(2,7).
point(4,7).
point(6,7).
point(7,7).
point(8,7).
point(11,7).
point(1,8).
point(9,8).
point(10,8).
point(2,9).
point(3,9).
point(4,9).
point(5,9).
point(8,9).
point(9,9).
point(10,9).
point(11,9).
point(4,10).
point(5,10).
point(9,10).
point(10,10).
point(2,11).
point(3,11).
point(7,11).
point(8,11).
point(10,11).
point(11,11).
point(6,0).
point(12,5).
point(12,6).
point(12,7).
point(2,12).
point(3,12).
point(4,12).
point(6,12).
point(9,12).
point(10,12).
point(12,12).
point(0,7).
point(0,8).
point(1,12).
point(0,0).
point(0,1).
